n_res = 4;
rc = [ 13, 15, 14, 14 ];
n_tasks = 120;
d = [ 8, 2, 4, 9, 4, 4, 8, 6, 6, 8, 1, 8, 5, 4, 3, 3, 4, 5, 3, 2, 7, 1, 10, 10, 3, 6, 1, 4, 2, 5, 3, 9, 5, 6, 3, 3, 4, 2, 8, 3, 8, 3, 4, 6, 8, 9, 10, 8, 5, 10, 2, 7, 9, 5, 8, 2, 5, 9, 6, 7, 5, 1, 8, 6, 8, 8, 10, 9, 8, 9, 4, 4, 1, 5, 4, 7, 1, 3, 9, 10, 8, 6, 6, 1, 4, 2, 1, 4, 9, 1, 3, 5, 4, 5, 4, 7, 9, 4, 10, 2, 5, 6, 8, 9, 4, 6, 8, 7, 4, 10, 3, 2, 7, 1, 3, 7, 1, 4, 6, 2 ];
rr = [| 0, 8, 0, 8, 2, 3, 1, 5, 1, 0, 3, 0, 0, 0, 3, 0, 3, 8, 5, 9, 0, 3, 0, 0, 6, 0, 1, 0, 2, 0, 0, 3, 3, 0, 0, 0, 0, 10, 0, 7, 6, 6, 0, 0, 9, 0, 4, 10, 0, 9, 9, 0, 3, 8, 4, 0, 0, 0, 0, 7, 5, 0, 3, 0, 7, 2, 0, 4, 7, 0, 3, 0, 0, 0, 10, 7, 2, 10, 2, 9, 2, 0, 0, 0, 6, 1, 0, 0, 0, 10, 0, 0, 0, 0, 8, 7, 8, 2, 2, 4, 0, 0, 0, 0, 1, 5, 2, 0, 0, 0, 5, 4, 0, 8, 0, 0, 6, 0, 0, 2
      | 5, 0, 0, 7, 0, 0, 0, 0, 0, 6, 2, 0, 6, 0, 7, 0, 0, 0, 1, 0, 1, 3, 7, 0, 6, 0, 0, 8, 0, 5, 7, 3, 1, 4, 6, 0, 10, 0, 0, 6, 10, 0, 10, 8, 8, 0, 0, 0, 7, 7, 0, 8, 0, 10, 0, 0, 7, 8, 10, 0, 0, 1, 8, 0, 0, 0, 9, 0, 4, 0, 0, 5, 9, 9, 0, 6, 0, 6, 0, 0, 0, 0, 8, 0, 0, 10, 8, 0, 1, 10, 9, 0, 0, 0, 5, 5, 9, 0, 6, 0, 2, 0, 6, 7, 0, 0, 0, 0, 0, 9, 3, 10, 7, 7, 0, 1, 0, 3, 10, 0
      | 5, 0, 3, 1, 8, 2, 0, 4, 0, 5, 9, 0, 0, 0, 0, 2, 1, 4, 0, 0, 8, 0, 0, 3, 0, 7, 0, 2, 0, 10, 0, 7, 2, 6, 6, 0, 1, 6, 8, 1, 0, 7, 0, 0, 8, 0, 0, 10, 0, 10, 0, 0, 0, 0, 0, 2, 8, 0, 1, 0, 0, 1, 0, 0, 8, 5, 0, 0, 0, 5, 0, 0, 0, 0, 0, 0, 0, 4, 0, 0, 0, 8, 0, 4, 0, 2, 1, 4, 0, 0, 2, 8, 4, 0, 0, 4, 0, 0, 7, 0, 0, 0, 0, 9, 0, 9, 0, 0, 0, 3, 0, 0, 0, 2, 0, 0, 0, 7, 8, 9
      | 0, 0, 4, 0, 0, 7, 0, 0, 9, 2, 0, 1, 4, 5, 0, 6, 0, 0, 0, 0, 0, 0, 0, 3, 7, 3, 0, 0, 0, 0, 6, 0, 2, 0, 0, 9, 0, 0, 0, 7, 3, 0, 10, 5, 1, 1, 0, 5, 9, 5, 1, 5, 0, 0, 6, 5, 0, 7, 3, 0, 6, 0, 0, 4, 1, 9, 4, 10, 8, 5, 0, 9, 9, 0, 3, 0, 4, 0, 0, 1, 7, 5, 0, 3, 4, 0, 0, 0, 6, 8, 0, 0, 0, 4, 0, 0, 2, 0, 0, 0, 3, 10, 0, 6, 0, 2, 4, 10, 5, 10, 9, 0, 6, 1, 10, 0, 5, 2, 0, 0 |];
suc = [ { 5, 6, 12 },
       { 4, 22, 36 },
       { 48, 53, 59 },
       { 17, 19, 20 },
       { 7, 9, 10 },
       { 8, 15, 23 },
       { 38 },
       { 21, 27, 37 },
       { 24, 47, 82 },
       { 11, 13, 93 },
       { 14, 18 },
       { 43, 51, 90 },
       { 34, 36, 40 },
       { 24, 48, 59 },
       { 16, 37, 85 },
       { 28, 70, 102 },
       { 62, 72 },
       { 26, 31, 38 },
       { 42, 71, 73 },
       { 35, 45, 82 },
       { 72 },
       { 32, 33, 65 },
       { 31, 64 },
       { 25, 41 },
       { 30 },
       { 39, 58, 109 },
       { 41, 83, 97 },
       { 29, 40, 65 },
       { 44 },
       { 55, 74, 83 },
       { 116 },
       { 35, 66, 100 },
       { 100 },
       { 52, 55, 63 },
       { 47, 68, 70 },
       { 49, 53 },
       { 45, 54, 58 },
       { 59, 66 },
       { 44, 56, 75 },
       { 96 },
       { 49, 67, 85 },
       { 50, 81, 89 },
       { 76, 97 },
       { 46, 74, 110 },
       { 65, 68, 91 },
       { 54, 103, 104 },
       { 50, 58, 61 },
       { 54, 56, 76 },
       { 60, 99, 100 },
       { 69, 79, 93 },
       { 52, 61, 93 },
       { 57, 60, 113 },
       { 55, 60, 63 },
       { 95 },
       { 56, 99 },
       { 81, 84, 117 },
       { 80, 86, 106 },
       { 97, 102 },
       { 63, 69, 83 },
       { 86 },
       { 75, 77, 85 },
       { 74 },
       { 67 },
       { 76, 112 },
       { 73, 88 },
       { 72, 78, 94 },
       { 70, 71, 88 },
       { 69, 79, 104 },
       { 90, 113 },
       { 75, 80, 105 },
       { 77, 78 },
       { 82, 86 },
       { 77, 81, 84 },
       { 98 },
       { 79, 92 },
       { 111 },
       { 92, 96, 105 },
       { 80, 95 },
       { 111, 118 },
       { 89, 96 },
       { 94 },
       { 91 },
       { 84, 87, 107 },
       { 116 },
       { 92, 103 },
       { 108, 114 },
       { 88, 99, 117 },
       { 90, 101 },
       { 91 },
       { 94, 109 },
       { 98, 114 },
       { 98, 104 },
       { 95, 106, 110 },
       { 112 },
       { 108, 113 },
       { 103, 107, 111 },
       { 101 },
       { 107 },
       { 101, 102 },
       { 108, 109 },
       { 105 },
       { 114 },
       { 117 },
       { 106, 115 },
       { 110 },
       { 119 },
       { 119 },
       { 115 },
       { 120 },
       { 112 },
       { 115 },
       { 116 },
       { 120 },
       { 120 },
       { 119 },
       { 118 },
       { 118 },
       {  },
       {  },
       {  } ];
